c "961250.clq"
p edge 80 304
e 1 5
e 1 6
e 1 7
e 1 8
e 1 9
e 1 12
e 1 20
e 1 23
e 2 5
e 2 6
e 2 7
e 2 10
e 2 11
e 2 14
e 2 27
e 2 28
e 2 42
e 2 49
e 2 58
e 2 63
e 2 67
e 2 68
e 2 71
e 2 73
e 3 5
e 3 6
e 3 7
e 3 8
e 3 11
e 3 13
e 3 16
e 3 17
e 3 20
e 3 21
e 3 22
e 3 28
e 3 32
e 3 33
e 3 38
e 3 43
e 3 45
e 3 46
e 3 49
e 3 72
e 3 74
e 3 75
e 3 79
e 4 5
e 4 11
e 4 60
e 4 64
e 5 6
e 5 8
e 5 10
e 5 11
e 5 12
e 5 13
e 5 16
e 5 17
e 5 19
e 5 21
e 5 23
e 5 26
e 5 27
e 5 29
e 5 31
e 5 35
e 5 36
e 5 40
e 5 41
e 5 42
e 5 47
e 5 48
e 5 49
e 5 51
e 5 56
e 5 63
e 5 66
e 5 69
e 5 72
e 5 75
e 5 76
e 6 7
e 6 9
e 6 12
e 6 13
e 6 14
e 6 15
e 6 16
e 6 20
e 6 21
e 6 27
e 6 33
e 6 36
e 6 37
e 6 39
e 6 40
e 6 41
e 6 45
e 6 46
e 6 49
e 6 54
e 6 57
e 6 74
e 7 8
e 7 9
e 7 16
e 7 22
e 7 25
e 7 28
e 7 29
e 7 30
e 7 32
e 7 37
e 7 40
e 7 44
e 7 58
e 7 59
e 7 61
e 7 68
e 7 70
e 7 80
e 8 9
e 8 10
e 8 12
e 8 14
e 8 15
e 8 18
e 8 19
e 8 20
e 8 31
e 8 32
e 8 34
e 8 38
e 8 44
e 8 47
e 8 51
e 8 53
e 8 54
e 8 60
e 8 66
e 8 70
e 8 71
e 8 74
e 8 76
e 9 10
e 9 17
e 9 18
e 9 19
e 9 31
e 9 54
e 9 78
e 10 15
e 10 28
e 10 34
e 10 56
e 11 14
e 11 21
e 11 38
e 11 50
e 12 13
e 12 18
e 12 25
e 12 30
e 12 35
e 12 48
e 12 50
e 12 59
e 12 69
e 12 71
e 13 15
e 13 29
e 13 30
e 13 36
e 13 43
e 13 62
e 13 65
e 13 77
e 13 78
e 14 18
e 14 25
e 14 46
e 14 70
e 15 40
e 15 74
e 15 80
e 16 17
e 16 26
e 16 39
e 16 43
e 16 50
e 16 55
e 16 62
e 17 52
e 17 77
e 18 19
e 18 22
e 18 31
e 19 24
e 19 25
e 19 56
e 20 23
e 20 24
e 20 29
e 20 38
e 20 41
e 20 48
e 20 54
e 20 80
e 21 22
e 21 24
e 21 46
e 21 58
e 21 61
e 21 67
e 21 69
e 22 23
e 22 27
e 22 32
e 22 33
e 22 37
e 22 50
e 23 24
e 23 26
e 23 33
e 23 35
e 24 30
e 24 35
e 24 41
e 24 42
e 24 63
e 24 72
e 24 80
e 25 26
e 25 45
e 25 67
e 25 79
e 26 34
e 26 48
e 26 57
e 27 58
e 27 61
e 27 69
e 28 59
e 28 75
e 28 77
e 29 34
e 29 37
e 29 53
e 30 39
e 30 43
e 30 52
e 30 53
e 31 44
e 31 52
e 31 65
e 31 73
e 34 36
e 34 42
e 34 67
e 34 73
e 35 39
e 35 47
e 35 56
e 35 66
e 35 76
e 36 52
e 38 44
e 38 51
e 38 73
e 38 79
e 40 60
e 41 71
e 42 55
e 43 45
e 43 55
e 43 57
e 44 51
e 44 53
e 44 61
e 45 47
e 46 62
e 47 57
e 47 59
e 47 63
e 47 64
e 48 60
e 48 78
e 49 55
e 49 65
e 49 78
e 50 62
e 50 75
e 50 77
e 51 66
e 55 68
e 56 70
e 59 64
e 59 65
e 60 79
e 61 68
e 61 72
e 62 64
e 72 76
